NAME: tsp20-25
TYPE: TSP
DIMENSION: 20
EDGE_WEIGHT_TYPE: EUC_2D
NODE_COORD_SECTION
0 100 100
1 95 32
2 50 66
3 60 33
4 97 99
5 8 94
6 44 27
7 3 93
8 47 73
9 47 82
10 23 40
11 1 90
12 16 72
13 21 61
14 78 71
15 72 7
16 51 84
17 50 63
18 43 80
19 10 100
EOF